NAME: tsp30-34
TYPE: TSP
DIMENSION: 30
EDGE_WEIGHT_TYPE: EUC_2D
NODE_COORD_SECTION
0 84 33
1 40 48
2 89 27
3 97 74
4 55 93
5 45 74
6 94 28
7 68 22
8 97 34
9 22 87
10 74 92
11 38 53
12 10 31
13 54 43
14 81 50
15 95 67
16 26 100
17 62 52
18 14 100
19 2 81
20 5 75
21 99 9
22 27 97
23 51 68
24 91 95
25 6 38
26 60 26
27 9 40
28 87 70
29 4 10
EOF